x04m08e0t1tp5
2961
3047
3047
3146
3146
3146
3146
3231
3231
3231
3231
3231
3478
3478
3478
3478
3478
3478
3478
3478
3478
3478
3478
3478
3478
3478
3478
3478
3478
3478
3478
3478
3478
3478
3478
3478
3478
3478
3478
3478
3478
3478
3478
3478
3478
3478
3478
3478
3478
3478
3478
3478
3478
3478
3478
3478
3478
3478
3478
3478
3478
3478
3478
3478
3478
3478
3478
3478
3478
3478
3478
3478
3478
3478
3478
3478
3478
3478
3478
3478
3478
3478
3478
3478
3478
3478
3478
3478
3478
3478
3478
3478
3478
3478
3478
3478
3478
3478
3478
3478
3478
3478
3478
3478
3478
3478
3478
3478
3478
3478
3478
3478
3478
3478
3478
3478
3478
3478
3478
3478
3478
3478
3478
3478
3478
3478
3478
3478
3478
3478
3478
3478
3478
3478
3478
3478
3478
3478
3478
3478
3478
3478
3478
3478
3478
3478
3478
3478
3478
3478
3478
3478
3478
3478
3478
3478
3478
3478
3478
3478
3478
3478
3478
3478
3478
3478
3478
3478
3478
3478
3537
3537
3537
3537
3537
3537
3537
3537
3537
3537
3537
3537
3537
3537
3537
3537
3537
3537
3537
3537
3537
3537
3537
3537
3537
3537
3537
3537
3537
3537
3537
3537
3537
3537
3537
3537
3537
3537
3537
3537
3537
3537
3537
3537
3537
3537
3537
3537
3537
3537
3537
3537
3537
3537
3537
3537
3537
3537
3537
3537
3537
3537
3537
3537
3537
3537
3537
3537
3537
3537
3537
3537
3537
3537
3537
3537
3537
3537
3537
3537
3537
3537
3537
3537
3537
3537
3537
3537
3537
3537
3537
3537
3537
3537
3537
3537
3537
3537
3537
3537
3537
3537
3537
3537
3537
3537
3537
3537
3537
3537
3537
3537
3537
3537
3537
3537
3537
3537
3537
3537
3537
3537
3537
3537
3537
3537
3537
3537
3537
3537
3537
3537
3537
3537
3537
3537
3537
3537
3537
3537
3537
3537
3537
3537
3537
3537
3537
3537
3537
3537
3537
3537
3537
3537
3537
3537
3537
3537
3537
3537
3537
3537
3537
3537
3537
3537
3537
3537
3537
3537
3537
3537
3537
3537
3537
3537
3537
3537
3537
3537
3537
3537
3537
3537
3537
3537
3537
3537
3537
3537
3537
3537
3537
3537
3537
3537
3537
3537
3537
3537
3537
3537
3537
3537
3537
3537
3537
3537
3537
3537
3537
3537
3537
3537
3537
3537
3537
3537
3537
3537
3537
3537
3537
3537
3537
3537
3537
3537
3537
3537
3537
3537
3537
3537
3537
3537
3537
3537
3537
3537
3537
3537
3537
3537
3537
3537
3537
3537
3537
3537
3537
3537
3537
3537
3537
3537
3537
3537
3537
3537
3537
3537
3537
3537
3537
3537
3537
3537
3537
3537
3537
3537
3537
3537
3537
3537
3537
3537
3537
3537
3537
3537
3537
3537
3537
3537
3537
3537
3548
3548
3548
3548
3548
3548
3548
3548
3548
3548
3548
3548
3548
3548
3548
3548
3548
3548
3548
3548
3548
3548
3548
3548
3548
3548
3548
3548
3552
3552
3552
3552
3552
3552
3552
3552
3552
3552
3552
3552
3552
3552
3552
3552
3552
3552
3552
3552
3552
3552
3552
3552
3552
3552
3552
3552
3552
3552
3552
3552
3552
3552
3552
3552
3552
3552
3552
3552
3552
3552
3552
3552
3552
3552
3552
3552
3552
3552
3552
3552
3552
3552
3552
3552
3552
3552
3552
3552
3552
3552
3552
3552
3552
3552
3552
3552
3552
3552
3552
3552
3552
3552
3552
3552
3552
3552
3552
3552
3552
3552
3552
3552
3552
3552
3552
3552
3552
3552
3552
3552
3552
3552
3552
3552
3552
3552
3552
3552
3552
3552
3552
3552
3552
3552
3552
3552
3552
3552
3552
3552
3552
3552
3552
3552
3552
3552
3552
3552
3552
3552
3552
3552
3552
3552
3552
3552
3552
3552
3552
3552
3552
3552
3552
3552
3552
3552
3552
3552
3552
3552
3552
3552
3552
3552
3552
3552
3552
3552
3552
3552
3552
3552
3552
3552
3552
3552
3552
3552
3552
3552
3552
3552
3552
3552
3552
3552
3552
3552
3552
3552
3552
3552
3552
3552
3552
3552
3552
3552
3552
3552
3552
3552
3552
3552
3552
3552
3552
3552
3552
3552
3552
3552
3552
3552
3552
3552
3552
3552
3552
3552
3552
3552
3552
3552
3552
3552
3552
3552
3552
3552
3552
3552
3552
3552
3552
3552
3552
3552
3552
3552
3552
3552
3552
3552
3552
3552
3552
3552
3552
3552
3552
3552
3552
3552
3552
3552
3552
3552
3552
3552
3552
3552
3552
3552
3552
3552
3552
3552
3552
3552
3552
3552
3552
3552
3552
3552
3552
3552
3552
3552
3552
3552
3552
3552
3552
3552
3552
3552
3552
3552
3552
3552
3552
3552
3552
3552
3552
3552
3552
3552
3552
3552
3552
3552
3552
3552
3552
3552
3552
3552
3552
3552
3552
3552
3552
3552
3552
3552
3552
3552
3552
3552
3552
3552
3552
3552
3552
3552
3552
3552
3552
3552
3552
3552
3552
3552
3552
3552
3552
3552
3552
3552
3552
3552
3552
3552
3552
3552
3552
3552
3552
3552
3552
3552
3552
3552
3552
3552
3552
3552
3552
3552
3552
3552
3552
3552
3552
3552
3552
3552
3552
3552
3552
3552
3552
3552
3552
3552
3552
3552
3552
3552
3552
3552
3552
3552
3552
3552
3552
3552
3552
3552
3552
3552
3552
3552
3552
3552
3552
3552
3552
3552
3552
3552
3552
3552
3552
3552
3552
3552
3552
3552
3552
3552
3552
3552
3552
3552
3552
3552
3552
3552
3552
3552
3552
3552
3552
3552
3552
3552
3552
3552
3552
3552
3552
3552
3552
3552
3552
3552
3552
3552
3552
3552
3552
3552
3552
3552
3552
3552
3552
3552
3552
3552
3552
3552
3552
3552
3552
3552
3552
3552
3552
3552
3552
3552
3552
3552
3552
3552
3552
3552
3552
3552
3552
3552
3552
3552
3552
3552
3552
3552
3552
3552
3552
3552
3552
3552
3552
3552
3552
3552
3552
3552
3552
3552
3552
3605
3605
3605
3605
3605
3605
3605
3605
3605
3605
3605
3605
3605
3605
3605
3605
3605
3605
3605
3605
3605
3605
3605
3605
3605
3605
3605
3605
3605
3605
3605
3605
3605
3605
3605
